

[MD_Reward_Main]	Dungeon_Index	DayOfWeek	Clear_Count	Reward_Index
0	194	7	0	1
1	218	7	0	2
2	245	7	0	3
3	253	7	0	4
4	293	7	0	5
5	294	7	0	6
6	302	7	0	7
7	303	7	0	8
8	304	7	0	9
9	4096	7	0	10
10	4097	7	0	11
11	4098	7	0	12
12	4099	7	0	13
13	4100	7	0	14
14	4101	7	0	15
15	4102	7	0	16
16	4103	7	0	17
17	4104	7	0	18
18	4105	7	0	19
19	4106	7	0	20
20	4107	7	0	21
21	4108	7	0	22
22	4109	7	0	23
23	4110	7	0	24
24	4111	7	0	25
25	4112	7	0	26
26	4113	7	0	27
27	4114	7	0	28
28	4115	7	0	29
29	4116	7	0	30
30	4117	7	0	31
31	4118	7	0	32
32	4119	7	0	33
33	4121	7	0	34
34	4122	7	0	35
35	4123	7	0	36
36	4124	7	0	37
37	4125	7	0	38
38	4126	7	0	39
39	4127	7	0	40
40	4128	7	0	41
41	4129	7	0	42
42	4130	7	0	43
43	4131	7	0	44
44	4132	7	0	45
45	4133	7	0	46
46	4134	7	0	47
47	4135	7	0	48
48	4136	7	0	49
49	4137	7	0	50
50	4138	7	0	51
51	4139	7	0	52
52	4140	7	0	53
53	4141	7	0	54
54	4142	7	0	55
55	4143	7	0	56
56	4144	7	0	57
57	4145	7	0	58
58	4146	7	0	59
59	4147	7	0	60
60	4148	7	0	61
61	4149	7	0	62
62	4150	7	0	63
63	4151	7	0	64
64	4152	7	0	65
65	4153	7	0	66
66	4154	7	0	67
67	4155	7	0	68
68	4156	7	0	69
69	4157	7	0	70
70	4158	7	0	71
71	4159	7	0	72
72	4160	7	0	73
73	4161	7	0	74
74	4162	7	0	75
75	4163	7	0	76
76	4164	7	0	77
77	4220	7	0	78
78	4221	7	0	79
79	4222	7	0	80
80	4223	7	0	81
81	4224	7	0	82
82	4225	7	0	83
83	4226	7	0	84
84	4227	7	0	85
85	4228	7	0	86
86	4229	7	0	87
87	4230	7	0	88
88	4231	7	0	89
89	4232	7	0	90
90	4233	7	0	91
91	4234	7	0	92
92	4235	7	0	93
93	4236	7	0	94
94	4237	7	0	95
95	4238	7	0	96
96	4239	7	0	97
97	4240	7	0	98
98	4241	7	0	99
99	4243	7	0	100
100	4244	7	0	101
101	4245	7	0	102
102	4248	7	0	103
103	4249	7	0	104
104	4250	7	0	105
105	4252	7	0	106
106	4263	7	0	107
107	4264	7	0	108
108	4265	7	0	109
109	4096	1	2	129
110	4096	1	5	119
111	4096	1	10	149
112	4096	2	2	129
113	4096	2	5	119
114	4096	2	10	149
115	4096	3	2	129
116	4096	3	5	119
117	4096	3	10	149
118	4096	4	2	129
119	4096	4	5	119
120	4096	4	10	149
121	4096	5	2	129
122	4096	5	5	119
123	4096	5	10	149
124	4096	6	2	129
125	4096	6	5	119
126	4096	6	10	149
127	4096	6	15	159
128	4096	0	2	129
129	4096	0	5	119
130	4096	0	10	149
131	4096	0	15	159
132	4097	1	2	130
133	4097	1	5	116
134	4097	1	10	148
135	4097	2	2	130
136	4097	2	5	116
137	4097	2	10	148
138	4097	3	2	130
139	4097	3	5	116
140	4097	3	10	148
141	4097	4	2	130
142	4097	4	5	116
143	4097	4	10	148
144	4097	5	2	130
145	4097	5	5	116
146	4097	5	10	148
147	4097	6	2	130
148	4097	6	5	116
149	4097	6	10	148
150	4097	6	15	156
151	4097	0	2	130
152	4097	0	5	116
153	4097	0	10	148
154	4097	0	15	156
155	4098	1	2	131
156	4098	1	5	117
157	4098	1	10	148
158	4098	2	2	131
159	4098	2	5	117
160	4098	2	10	148
161	4098	3	2	131
162	4098	3	5	117
163	4098	3	10	148
164	4098	4	2	131
165	4098	4	5	117
166	4098	4	10	148
167	4098	5	2	131
168	4098	5	5	117
169	4098	5	10	148
170	4098	6	2	131
171	4098	6	5	117
172	4098	6	10	148
173	4098	6	15	157
174	4098	0	2	131
175	4098	0	5	117
176	4098	0	10	148
177	4098	0	15	157
178	4099	1	2	132
179	4099	1	5	114
180	4099	1	10	149
181	4099	2	2	132
182	4099	2	5	114
183	4099	2	10	149
184	4099	3	2	132
185	4099	3	5	114
186	4099	3	10	149
187	4099	4	2	132
188	4099	4	5	114
189	4099	4	10	149
190	4099	5	2	132
191	4099	5	5	114
192	4099	5	10	149
193	4099	6	2	132
194	4099	6	5	114
195	4099	6	10	149
196	4099	6	15	154
197	4099	0	2	132
198	4099	0	5	114
199	4099	0	10	149
200	4099	0	15	154
201	4102	1	2	133
202	4102	1	5	123
203	4102	1	10	148
204	4102	2	2	133
205	4102	2	5	123
206	4102	2	10	148
207	4102	3	2	133
208	4102	3	5	123
209	4102	3	10	148
210	4102	4	2	133
211	4102	4	5	123
212	4102	4	10	148
213	4102	5	2	133
214	4102	5	5	123
215	4102	5	10	148
216	4102	6	2	133
217	4102	6	5	123
218	4102	6	10	148
219	4102	6	15	163
220	4102	0	2	133
221	4102	0	5	123
222	4102	0	10	148
223	4102	0	15	163
224	4105	1	2	134
225	4105	1	5	121
226	4105	1	10	148
227	4105	2	2	134
228	4105	2	5	121
229	4105	2	10	148
230	4105	3	2	134
231	4105	3	5	121
232	4105	3	10	148
233	4105	4	2	134
234	4105	4	5	121
235	4105	4	10	148
236	4105	5	2	134
237	4105	5	5	121
238	4105	5	10	148
239	4105	6	2	134
240	4105	6	5	121
241	4105	6	10	148
242	4105	6	15	161
243	4105	0	2	134
244	4105	0	5	121
245	4105	0	10	148
246	4105	0	15	161
247	4106	1	2	135
248	4106	1	5	118
249	4106	1	10	148
250	4106	2	2	135
251	4106	2	5	118
252	4106	2	10	148
253	4106	3	2	135
254	4106	3	5	118
255	4106	3	10	148
256	4106	4	2	135
257	4106	4	5	118
258	4106	4	10	148
259	4106	5	2	135
260	4106	5	5	118
261	4106	5	10	148
262	4106	6	2	135
263	4106	6	5	118
264	4106	6	10	148
265	4106	6	15	158
266	4106	0	2	135
267	4106	0	5	118
268	4106	0	10	148
269	4106	0	15	158
270	4109	1	2	136
271	4109	1	5	122
272	4109	1	10	148
273	4109	2	2	136
274	4109	2	5	122
275	4109	2	10	148
276	4109	3	2	136
277	4109	3	5	122
278	4109	3	10	148
279	4109	4	2	136
280	4109	4	5	122
281	4109	4	10	148
282	4109	5	2	136
283	4109	5	5	122
284	4109	5	10	148
285	4109	6	2	136
286	4109	6	5	122
287	4109	6	10	148
288	4109	6	15	162
289	4109	0	2	136
290	4109	0	5	122
291	4109	0	10	148
292	4109	0	15	162
293	4110	1	2	137
294	4110	1	5	115
295	4110	1	10	149
296	4110	2	2	137
297	4110	2	5	115
298	4110	2	10	149
299	4110	3	2	137
300	4110	3	5	115
301	4110	3	10	149
302	4110	4	2	137
303	4110	4	5	115
304	4110	4	10	149
305	4110	5	2	137
306	4110	5	5	115
307	4110	5	10	149
308	4110	6	2	137
309	4110	6	5	115
310	4110	6	10	149
311	4110	6	15	155
312	4110	0	2	137
313	4110	0	5	115
314	4110	0	10	149
315	4110	0	15	155
316	4117	1	5	127
317	4117	1	10	148
318	4117	2	5	127
319	4117	2	10	148
320	4117	3	5	127
321	4117	3	10	148
322	4117	4	5	127
323	4117	4	10	148
324	4117	5	5	127
325	4117	5	10	148
326	4117	6	5	127
327	4117	6	10	148
328	4117	6	15	167
329	4117	0	5	127
330	4117	0	10	148
331	4117	0	15	167
332	4118	1	5	125
333	4118	1	10	148
334	4118	2	5	125
335	4118	2	10	148
336	4118	3	5	125
337	4118	3	10	148
338	4118	4	5	125
339	4118	4	10	148
340	4118	5	5	125
341	4118	5	10	148
342	4118	6	5	125
343	4118	6	10	148
344	4118	6	15	165
345	4118	0	5	125
346	4118	0	10	148
347	4118	0	15	165
348	4119	1	5	126
349	4119	1	10	148
350	4119	2	5	126
351	4119	2	10	148
352	4119	3	5	126
353	4119	3	10	148
354	4119	4	5	126
355	4119	4	10	148
356	4119	5	5	126
357	4119	5	10	148
358	4119	6	5	126
359	4119	6	10	148
360	4119	6	15	166
361	4119	0	5	126
362	4119	0	10	148
363	4119	0	15	166
364	4123	1	2	141
365	4123	1	5	124
366	4123	1	10	148
367	4123	2	2	141
368	4123	2	5	124
369	4123	2	10	148
370	4123	3	2	141
371	4123	3	5	124
372	4123	3	10	148
373	4123	4	2	141
374	4123	4	5	124
375	4123	4	10	148
376	4123	5	2	141
377	4123	5	5	124
378	4123	5	10	148
379	4123	6	2	141
380	4123	6	5	124
381	4123	6	10	148
382	4123	6	15	164
383	4123	0	2	141
384	4123	0	5	124
385	4123	0	10	148
386	4123	0	15	164
387	4124	1	5	128
388	4124	1	10	148
389	4124	2	5	128
390	4124	2	10	148
391	4124	3	5	128
392	4124	3	10	148
393	4124	4	5	128
394	4124	4	10	148
395	4124	5	5	128
396	4124	5	10	148
397	4124	6	5	128
398	4124	6	10	148
399	4124	6	15	168
400	4124	0	5	128
401	4124	0	10	148
402	4124	0	15	168
403	4220	1	2	143
404	4220	1	5	112
405	4220	1	10	149
406	4220	2	2	143
407	4220	2	5	112
408	4220	2	10	149
409	4220	3	2	143
410	4220	3	5	112
411	4220	3	10	149
412	4220	4	2	143
413	4220	4	5	112
414	4220	4	10	149
415	4220	5	2	143
416	4220	5	5	112
417	4220	5	10	149
418	4220	6	2	143
419	4220	6	5	112
420	4220	6	10	149
421	4220	6	15	152
422	4220	0	2	143
423	4220	0	5	112
424	4220	0	10	149
425	4220	0	15	152
426	4250	1	5	120
427	4250	1	10	149
428	4250	2	5	120
429	4250	2	10	149
430	4250	3	5	120
431	4250	3	10	149
432	4250	4	5	120
433	4250	4	10	149
434	4250	5	5	120
435	4250	5	10	149
436	4250	6	5	120
437	4250	6	10	149
438	4250	6	15	160
439	4250	0	5	120
440	4250	0	10	149
441	4250	0	15	160
442	4263	1	5	110
443	4263	1	10	149
444	4263	2	5	110
445	4263	2	10	149
446	4263	3	5	110
447	4263	3	10	149
448	4263	4	5	110
449	4263	4	10	149
450	4263	5	5	110
451	4263	5	10	149
452	4263	6	5	110
453	4263	6	10	149
454	4263	6	15	150
455	4263	0	5	110
456	4263	0	10	149
457	4263	0	15	150
458	4264	1	2	146
459	4264	1	5	111
460	4264	1	10	149
461	4264	2	2	146
462	4264	2	5	111
463	4264	2	10	149
464	4264	3	2	146
465	4264	3	5	111
466	4264	3	10	149
467	4264	4	2	146
468	4264	4	5	111
469	4264	4	10	149
470	4264	5	2	146
471	4264	5	5	111
472	4264	5	10	149
473	4264	6	2	146
474	4264	6	5	111
475	4264	6	10	149
476	4264	6	15	151
477	4264	0	2	146
478	4264	0	5	111
479	4264	0	10	149
480	4264	0	15	151
481	4265	1	2	147
482	4265	1	5	113
483	4265	1	10	149
484	4265	2	2	147
485	4265	2	5	113
486	4265	2	10	149
487	4265	3	2	147
488	4265	3	5	113
489	4265	3	10	149
490	4265	4	2	147
491	4265	4	5	113
492	4265	4	10	149
493	4265	5	2	147
494	4265	5	5	113
495	4265	5	10	149
496	4265	6	2	147
497	4265	6	5	113
498	4265	6	10	149
499	4265	6	15	153
500	4265	0	2	147
501	4265	0	5	113
502	4265	0	10	149
503	4265	0	15	153
504	4276	7	0	169
505	4277	7	0	170
506	4278	7	0	171
507	4279	7	0	172
508	4280	7	0	173
509	4277	1	5	178
510	4277	1	10	149
511	4277	2	5	178
512	4277	2	10	149
513	4277	3	5	178
514	4277	3	10	149
515	4277	4	5	178
516	4277	4	10	149
517	4277	5	5	178
518	4277	5	10	149
519	4277	6	5	178
520	4277	6	10	149
521	4277	6	15	182
522	4277	0	5	178
523	4277	0	10	149
524	4277	0	15	182
525	4278	1	5	179
526	4278	1	10	149
527	4278	2	5	179
528	4278	2	10	149
529	4278	3	5	179
530	4278	3	10	149
531	4278	4	5	179
532	4278	4	10	149
533	4278	5	5	179
534	4278	5	10	149
535	4278	6	5	179
536	4278	6	10	149
537	4278	6	15	183
538	4278	0	5	179
539	4278	0	10	149
540	4278	0	15	183
541	4279	1	5	180
542	4279	1	10	149
543	4279	2	5	180
544	4279	2	10	149
545	4279	3	5	180
546	4279	3	10	149
547	4279	4	5	180
548	4279	4	10	149
549	4279	5	5	180
550	4279	5	10	149
551	4279	6	5	180
552	4279	6	10	149
553	4279	6	15	184
554	4279	0	5	180
555	4279	0	10	149
556	4279	0	15	184
557	4280	1	5	181
558	4280	1	10	149
559	4280	2	5	181
560	4280	2	10	149
561	4280	3	5	181
562	4280	3	10	149
563	4280	4	5	181
564	4280	4	10	149
565	4280	5	5	181
566	4280	5	10	149
567	4280	6	5	181
568	4280	6	10	149
569	4280	6	15	185
570	4280	0	5	181
571	4280	0	10	149
572	4280	0	15	185
573	4282	7	0	186
574	4282	1	5	187
575	4282	1	10	149
576	4282	2	5	187
577	4282	2	10	149
578	4282	3	5	187
579	4282	3	10	149
580	4282	4	5	187
581	4282	4	10	149
582	4282	5	5	187
583	4282	5	10	149
584	4282	6	5	187
585	4282	6	10	149
586	4282	6	15	188
587	4282	0	5	187
588	4282	0	10	149
589	4282	0	15	188
590	4283	7	0	189
591	4283	1	5	190
592	4283	1	10	149
593	4283	2	5	190
594	4283	2	10	149
595	4283	3	5	190
596	4283	3	10	149
597	4283	4	5	190
598	4283	4	10	149
599	4283	5	5	190
600	4283	5	10	149
601	4283	6	5	190
602	4283	6	10	149
603	4283	6	15	191
604	4283	0	5	190
605	4283	0	10	149
606	4283	0	15	191
607	4336	7	0	192
608	4336	1	5	193
609	4336	1	10	149
610	4336	2	5	193
611	4336	2	10	149
612	4336	3	5	193
613	4336	3	10	149
614	4336	4	5	193
615	4336	4	10	149
616	4336	5	5	193
617	4336	5	10	149
618	4336	6	5	193
619	4336	6	10	149
620	4336	6	15	194
621	4336	0	5	193
622	4336	0	10	149
623	4336	0	15	194
624	4337	1	3	195
625	4337	2	3	195
626	4337	3	3	195
627	4337	4	3	195
628	4337	5	3	195
629	4337	6	3	196
630	4337	0	3	196
631	4338	7	0	197
632	4339	7	0	198
633	4339	1	5	199
634	4339	1	10	200
635	4339	2	5	199
636	4339	2	10	200
637	4339	3	5	199
638	4339	3	10	200
639	4339	4	5	199
640	4339	4	10	200
641	4339	5	5	199
642	4339	5	10	200
643	4339	6	5	199
644	4339	6	10	200
645	4339	6	15	204
646	4339	0	5	199
647	4339	0	10	200
648	4339	0	15	204
649	4340	7	0	201
650	4340	1	5	202
651	4340	1	10	203
652	4340	2	5	202
653	4340	2	10	203
654	4340	3	5	202
655	4340	3	10	203
656	4340	4	5	202
657	4340	4	10	203
658	4340	5	5	202
659	4340	5	10	203
660	4340	6	5	202
661	4340	6	10	203
662	4340	6	15	205
663	4340	0	5	202
664	4340	0	10	203
665	4340	0	15	205
666	4341	7	0	206
667	4341	1	5	207
668	4341	1	10	208
669	4341	2	5	207
670	4341	2	10	208
671	4341	3	5	207
672	4341	3	10	208
673	4341	4	5	207
674	4341	4	10	208
675	4341	5	5	207
676	4341	5	10	208
677	4341	6	5	207
678	4341	6	10	208
679	4341	6	15	209
680	4341	0	5	207
681	4341	0	10	208
682	4341	0	15	209
683	4342	7	0	210
684	4342	1	5	211
685	4342	1	10	212
686	4342	2	5	211
687	4342	2	10	212
688	4342	3	5	211
689	4342	3	10	212
690	4342	4	5	211
691	4342	4	10	212
692	4342	5	5	211
693	4342	5	10	212
694	4342	6	5	211
695	4342	6	10	212
696	4342	6	15	213
697	4342	0	5	211
698	4342	0	10	212
699	4342	0	15	213
700	4337	1	5	215
701	4337	2	5	215
702	4337	3	5	215
703	4337	4	5	215
704	4337	5	5	215
705	4337	6	5	215
706	4337	0	5	215
707	4337	1	7	231
708	4337	2	7	231
709	4337	3	7	231
710	4337	4	7	231
711	4337	5	7	231
712	4337	6	7	231
713	4337	0	7	231
714	4343	7	0	216
715	4343	1	5	217
716	4343	1	10	218
717	4343	2	5	217
718	4343	2	10	218
719	4343	3	5	217
720	4343	3	10	218
721	4343	4	5	217
722	4343	4	10	218
723	4343	5	5	217
724	4343	5	10	218
725	4343	6	5	217
726	4343	6	10	218
727	4343	6	15	219
728	4343	0	5	217
729	4343	0	10	218
730	4343	0	15	219
731	4344	7	0	220
732	4345	7	0	221
733	4346	7	0	222
734	4346	1	5	223
735	4346	1	10	224
736	4346	2	5	223
737	4346	2	10	224
738	4346	3	5	223
739	4346	3	10	224
740	4346	4	5	223
741	4346	4	10	224
742	4346	5	5	223
743	4346	5	10	224
744	4346	6	5	223
745	4346	6	10	224
746	4346	6	15	225
747	4346	0	5	223
748	4346	0	10	224
749	4346	0	15	225
750	4347	7	0	226
751	4347	1	5	227
752	4347	1	10	228
753	4347	2	5	227
754	4347	2	10	228
755	4347	3	5	227
756	4347	3	10	228
757	4347	4	5	227
758	4347	4	10	228
759	4347	5	5	227
760	4347	5	10	228
761	4347	6	5	227
762	4347	6	10	228
763	4347	6	15	229
764	4347	0	5	227
765	4347	0	10	228
766	4347	0	15	229
767	4348	7	0	230
768	4349	7	0	232
769	4350	7	0	233
770	4350	1	5	234
771	4350	1	10	235
772	4350	2	5	234
773	4350	2	10	235
774	4350	3	5	234
775	4350	3	10	235
776	4350	4	5	234
777	4350	4	10	235
778	4350	5	5	234
779	4350	5	10	235
780	4350	6	5	234
781	4350	6	10	235
782	4350	6	15	236
783	4350	0	5	234
784	4350	0	10	235
785	4350	0	15	236
786	4351	7	0	237
787	4352	7	0	238
788	4353	7	0	239
789	4353	1	5	240
790	4353	1	10	241
791	4353	2	5	240
792	4353	2	10	241
793	4353	3	5	240
794	4353	3	10	241
795	4353	4	5	240
796	4353	4	10	241
797	4353	5	5	240
798	4353	5	10	241
799	4353	6	5	240
800	4353	6	10	241
801	4353	6	15	242
802	4353	0	5	240
803	4353	0	10	241
804	4353	0	15	242
805	4362	7	0	243
806	4362	1	5	244
807	4362	1	10	245
808	4362	2	5	244
809	4362	2	10	245
810	4362	3	5	244
811	4362	3	10	245
812	4362	4	5	244
813	4362	4	10	245
814	4362	5	5	244
815	4362	5	10	245
816	4362	6	5	244
817	4362	6	10	245
818	4362	6	15	246
819	4362	0	5	244
820	4362	0	10	245
821	4362	0	15	246
822	4363	7	0	247
823	4364	7	0	248
824	4365	7	0	249
825	4366	7	0	250
826	4366	1	5	251
827	4366	1	10	252
828	4366	2	5	251
829	4366	2	10	252
830	4366	3	5	251
831	4366	3	10	252
832	4366	4	5	251
833	4366	4	10	252
834	4366	5	5	251
835	4366	5	10	252
836	4366	6	5	251
837	4366	6	10	252
838	4366	6	15	253
839	4366	0	5	251
840	4366	0	10	252
841	4366	0	15	253
842	4368	7	0	254
843	4368	1	5	255
844	4368	1	10	256
845	4368	2	5	255
846	4368	2	10	256
847	4368	3	5	255
848	4368	3	10	256
849	4368	4	5	255
850	4368	4	10	256
851	4368	5	5	255
852	4368	5	10	256
853	4368	6	5	255
854	4368	6	10	256
855	4368	6	15	257
856	4368	0	5	255
857	4368	0	10	256
858	4368	0	15	257
859	4369	7	0	258
860	4369	1	5	259
861	4369	1	10	260
862	4369	2	5	259
863	4369	2	10	260
864	4369	3	5	259
865	4369	3	10	260
866	4369	4	5	259
867	4369	4	10	260
868	4369	5	5	259
869	4369	5	10	260
870	4369	6	5	259
871	4369	6	10	260
872	4369	6	15	261
873	4369	0	5	259
874	4369	0	10	260
875	4369	0	15	261
876	4370	7	0	262
877	4371	7	0	263
878	4371	1	5	264
879	4371	1	10	265
880	4371	2	5	264
881	4371	2	10	265
882	4371	3	5	264
883	4371	3	10	265
884	4371	4	5	264
885	4371	4	10	265
886	4371	5	5	264
887	4371	5	10	265
888	4371	6	5	264
889	4371	6	10	265
890	4371	6	15	266
891	4371	0	5	264
892	4371	0	10	265
893	4371	0	15	266


[MD_Reward_Value]	Reward_Index	Order	Reward_Type	Reward_PointValue	Reward_ItemKind	Reward_ItemOption	Reward_ItemDuration
0	1	0	5	1300	0	0	0
1	1	1	8	1	0	0	0
2	2	0	5	1700	0	0	0
3	2	1	6	5000	0	0	0
4	2	2	8	2	0	0	0
5	3	0	5	1500	0	0	0
6	3	1	8	1	0	0	0
7	4	0	5	30000	0	0	0
8	4	1	8	4	0	0	0
9	5	0	5	10000	0	0	0
10	5	1	8	3	0	0	0
11	6	0	5	30000	0	0	0
12	6	1	8	3	0	0	0
13	7	0	5	130	0	0	0
14	8	0	5	150	0	0	0
15	9	0	5	170	0	0	0
16	9	1	6	5000	0	0	0
17	10	0	5	60000	0	0	0
18	10	1	8	9	0	0	0
19	11	0	5	60000	0	0	0
20	11	1	8	6	0	0	0
21	12	0	5	60000	0	0	0
22	12	1	8	6	0	0	0
23	13	0	5	60000	0	0	0
24	13	1	8	7	0	0	0
25	14	0	8	1	0	0	0
26	15	0	8	2	0	0	0
27	16	0	8	3	0	0	0
28	17	0	8	1	0	0	0
29	18	0	8	2	0	0	0
30	19	0	8	3	0	0	0
31	20	0	5	100000	0	0	0
32	20	1	8	4	0	0	0
33	21	0	8	1	0	0	0
34	22	0	8	2	0	0	0
35	23	0	8	3	0	0	0
36	24	0	5	60000	0	0	0
37	24	1	8	7	0	0	0
38	25	0	8	1	0	0	0
39	26	0	8	2	0	0	0
40	27	0	8	3	0	0	0
41	28	0	8	4	0	0	0
42	29	0	8	5	0	0	0
43	30	0	8	6	0	0	0
44	31	0	8	4	0	0	0
45	32	0	8	4	0	0	0
46	33	0	8	4	0	0	0
47	34	0	8	1	0	0	0
48	35	0	8	2	0	0	0
49	36	0	8	3	0	0	0
50	37	0	8	4	0	0	0
51	38	0	0	6534	0	0	0
52	39	0	0	9126	0	0	0
53	40	0	0	10584	0	0	0
54	41	0	0	12150	0	0	0
55	42	0	0	13824	0	0	0
56	43	0	0	15606	0	0	0
57	44	0	0	13961	0	0	0
58	45	0	0	16724	0	0	0
59	46	0	0	19961	0	0	0
60	47	0	0	25922	0	0	0
61	48	0	0	25922	0	0	0
62	49	0	0	30854	0	0	0
63	50	0	0	33662	0	0	0
64	51	0	0	36725	0	0	0
65	52	0	0	40067	0	0	0
66	53	0	0	40769	0	0	0
67	54	0	0	41676	0	0	0
68	55	0	0	40954	0	0	0
69	56	0	0	42434	0	0	0
70	57	0	0	43019	0	0	0
71	58	0	0	44355	0	0	0
72	59	0	0	47675	0	0	0
73	60	0	0	48562	0	0	0
74	61	0	0	50342	0	0	0
75	62	0	0	55144	0	0	0
76	63	0	0	57317	0	0	0
77	64	0	0	59101	0	0	0
78	65	0	0	20049	0	0	0
79	66	0	0	62061	0	0	0
80	67	0	0	64242	0	0	0
81	68	0	0	67860	0	0	0
82	69	0	0	359422	0	0	0
83	70	0	0	76814	0	0	0
84	71	0	0	78487	0	0	0
85	72	0	0	80229	0	0	0
86	73	0	0	82043	0	0	0
87	74	0	0	79284	0	0	0
88	75	0	0	0	0	0	0
89	76	0	0	88916	0	0	0
90	77	0	0	2646	0	0	0
91	78	0	5	150000	0	0	0
92	78	1	8	10	0	0	0
93	79	0	0	1350	0	0	0
94	80	0	0	540	0	0	0
95	81	0	0	1057	0	0	0
96	82	0	0	2592	0	0	0
97	83	0	0	4954	0	0	0
98	84	0	0	11675	0	0	0
99	85	0	0	17437	0	0	0
100	86	0	0	1350	0	0	0
101	87	0	0	540	0	0	0
102	88	0	0	1057	0	0	0
103	89	0	0	2592	0	0	0
104	90	0	0	4954	0	0	0
105	91	0	0	11675	0	0	0
106	92	0	0	17437	0	0	0
107	93	0	0	1350	0	0	0
108	94	0	0	540	0	0	0
109	95	0	0	1057	0	0	0
110	96	0	0	2592	0	0	0
111	97	0	0	4954	0	0	0
112	98	0	0	11675	0	0	0
113	99	0	0	17437	0	0	0
114	100	0	0	19961	0	0	0
115	101	0	0	81059	0	0	0
116	102	0	0	82906	0	0	0
117	103	0	8	2	0	0	0
118	104	0	8	3	0	0	0
119	105	0	8	4	0	0	0
120	106	0	0	100000	0	0	0
121	107	0	5	200000	0	0	0
122	107	1	8	11	0	0	0
123	108	0	5	200000	0	0	0
124	108	1	8	11	0	0	0
125	109	0	5	200000	0	0	0
126	109	1	8	8	0	0	0
127	110	0	4	0	34078980	0	0
128	111	0	4	0	34078981	0	0
129	112	0	4	0	34078982	0	0
130	113	0	4	0	34078983	0	0
131	114	0	4	0	34078984	0	0
132	115	0	4	0	34078985	0	0
133	116	0	4	0	34078986	0	0
134	117	0	4	0	34078987	0	0
135	118	0	4	0	34078988	0	0
136	119	0	4	0	34078989	0	0
137	120	0	4	0	34078990	0	0
138	121	0	4	0	34078991	0	0
139	122	0	4	0	34078992	0	0
140	123	0	4	0	34078993	0	0
141	124	0	4	0	34078994	0	0
142	125	0	4	0	34078995	0	0
143	126	0	4	0	34078996	0	0
144	127	0	4	0	34078997	0	0
145	128	0	4	0	34078998	0	0
146	129	0	4	0	525755	1322	9
147	130	0	4	0	525826	1346	9
148	131	0	4	0	525948	1347	9
149	132	0	4	0	526075	1357	9
150	133	0	4	0	526021	1356	9
151	134	0	4	0	526469	1366	9
152	135	0	4	0	526490	1368	9
153	136	0	4	0	526542	1372	9
154	137	0	4	0	526543	1373	9
155	138	0	4	0	526655	1419	9
156	139	0	4	0	526656	1420	9
157	140	0	4	0	526657	1421	9
158	141	0	4	0	526853	1422	9
159	142	0	4	0	526854	1423	9
160	143	0	4	0	527138	1428	9
161	144	0	4	0	526855	1424	9
162	145	0	4	0	34078840	2110	9
163	146	0	4	0	34078879	2115	9
164	147	0	4	0	34078945	2130	9
165	148	0	4	0	34078999	0	0
166	149	0	4	0	34078876	0	0
167	150	0	4	0	34078980	0	0
168	150	1	4	0	34078876	0	0
169	151	0	4	0	34078981	0	0
170	151	1	4	0	34078876	0	0
171	152	0	4	0	34078982	0	0
172	152	1	4	0	34078876	0	0
173	153	0	4	0	34078983	0	0
174	153	1	4	0	34078876	0	0
175	154	0	4	0	34078984	0	0
176	154	1	4	0	34078876	0	0
177	155	0	4	0	34078985	0	0
178	155	1	4	0	34078876	0	0
179	156	0	4	0	34078986	0	0
180	156	1	4	0	34078999	0	0
181	157	0	4	0	34078987	0	0
182	157	1	4	0	34078999	0	0
183	158	0	4	0	34078988	0	0
184	158	1	4	0	34078999	0	0
185	159	0	4	0	34078989	0	0
186	159	1	4	0	34078876	0	0
187	160	0	4	0	34078990	0	0
188	160	1	4	0	34078876	0	0
189	161	0	4	0	34078991	0	0
190	161	1	4	0	34078999	0	0
191	162	0	4	0	34078992	0	0
192	162	1	4	0	34078999	0	0
193	163	0	4	0	34078993	0	0
194	163	1	4	0	34078999	0	0
195	164	0	4	0	34078994	0	0
196	164	1	4	0	34078999	0	0
197	165	0	4	0	34078995	0	0
198	165	1	4	0	34078999	0	0
199	166	0	4	0	34078996	0	0
200	166	1	4	0	34078999	0	0
201	167	0	4	0	34078997	0	0
202	167	1	4	0	34078999	0	0
203	168	0	4	0	34078998	0	0
204	168	1	4	0	34078999	0	0
205	169	0	8	8	0	0	0
206	170	0	8	5	0	0	0
207	171	0	8	5	0	0	0
208	172	0	8	5	0	0	0
209	173	0	8	5	0	0	0
210	174	0	4	0	34079404	2142	9
211	175	0	4	0	34079405	2143	9
212	176	0	4	0	34079403	2141	9
213	177	0	4	0	34079406	2144	9
214	178	0	4	0	34079413	0	0
215	179	0	4	0	34079412	0	0
216	180	0	4	0	34079410	0	0
217	181	0	4	0	34079411	0	0
218	182	0	4	0	34079413	0	0
219	182	1	4	0	34078876	0	0
220	183	0	4	0	34079412	0	0
221	183	1	4	0	34078876	0	0
222	184	0	4	0	34079410	0	0
223	184	1	4	0	34078876	0	0
224	185	0	4	0	34079411	0	0
225	185	1	4	0	34078876	0	0
226	186	0	8	5	0	0	0
227	187	0	4	0	34079457	0	0
228	188	0	4	0	34079457	0	0
229	188	1	4	0	34078876	0	0
230	189	0	8	12	0	0	0
231	190	0	4	0	34079548	0	0
232	191	0	4	0	34079548	0	0
233	191	1	4	0	34078876	0	0
234	192	0	8	7	0	0	0
235	193	0	4	0	34079883	0	0
236	194	0	4	0	34079883	0	0
237	194	1	4	0	34078876	0	0
238	195	0	4	0	34079939	0	0
239	196	0	4	0	34079940	0	0
240	197	0	8	10	0	0	0
241	198	0	8	7	0	0	0
242	199	0	4	0	34080370	0	0
243	200	0	4	0	34078876	0	0
244	201	0	8	7	0	0	0
245	202	0	4	0	34080371	0	0
246	203	0	4	0	34078876	0	0
247	204	0	4	0	34080370	0	0
248	204	1	4	0	34078876	0	0
249	205	0	4	0	34080371	0	0
250	205	1	4	0	34078876	0	0
251	206	0	8	7	0	0	0
252	207	0	4	0	34080410	0	0
253	208	0	4	0	34078876	0	0
254	209	0	4	0	34080410	0	0
255	209	1	4	0	34078876	0	0
256	210	0	8	20	0	0	0
257	211	0	4	0	34080411	0	0
258	212	0	4	0	34078876	0	0
259	213	0	4	0	34080411	0	0
260	213	1	4	0	34078876	0	0
261	214	0	4	0	34080450	0	0
262	215	0	4	0	34080451	0	0
263	216	0	8	6	0	0	0
264	217	0	4	0	34080467	0	0
265	218	0	4	0	34078876	0	0
266	219	0	4	0	34080467	0	0
267	219	1	4	0	34078876	0	0
268	220	0	8	6	0	0	0
269	221	0	8	7	0	0	0
270	222	0	8	6	0	0	0
271	223	0	4	0	34080628	0	0
272	224	0	4	0	34078876	0	0
273	225	0	4	0	34080628	0	0
274	225	1	4	0	34078876	0	0
275	226	0	8	13	0	0	0
276	227	0	4	0	34080759	0	0
277	228	0	4	0	34078876	0	0
278	229	0	4	0	34080759	0	0
279	229	1	4	0	34078876	0	0
280	230	0	8	7	0	0	0
281	231	0	4	0	34080888	0	0
282	232	0	8	15	0	0	0
283	233	0	8	8	0	0	0
284	234	0	4	0	34080967	0	0
285	235	0	4	0	34078876	0	0
286	236	0	4	0	34080967	0	0
287	236	1	4	0	34078876	0	0
288	237	0	8	5	0	0	0
289	238	0	8	10	0	0	0
290	239	0	8	8	0	0	0
291	240	0	4	0	34081189	0	0
292	241	0	4	0	34078876	0	0
293	242	0	4	0	34081189	0	0
294	242	1	4	0	34078876	0	0
295	243	0	8	8	0	0	0
296	244	0	4	0	34081281	0	0
297	245	0	4	0	34078876	0	0
298	246	0	4	0	34081281	0	0
299	246	1	4	0	34078876	0	0
300	247	0	8	6	0	0	0
301	248	0	5	1700	0	0	0
302	248	1	6	5000	0	0	0
303	248	2	8	2	0	0	0
304	249	0	5	33000	0	0	0
305	249	1	8	4	0	0	0
306	250	0	8	21	0	0	0
307	251	0	4	0	34081546	0	0
308	252	0	4	0	34078876	0	0
309	253	0	4	0	34081546	0	0
310	253	1	4	0	34078876	0	0
311	254	0	8	8	0	0	0
312	255	0	4	0	34081613	0	0
313	256	0	4	0	34078876	0	0
314	257	0	4	0	34081613	0	0
315	257	1	4	0	34078876	0	0
316	258	0	8	11	0	0	0
317	259	0	4	0	34081615	0	0
318	260	0	4	0	34078876	0	0
319	261	0	4	0	34081615	0	0
320	261	1	4	0	34078876	0	0
321	262	0	5	1300	0	0	0
322	262	1	8	1	0	0	0
323	263	0	8	22	0	0	0
324	264	0	4	0	34081682	0	0
325	265	0	4	0	34078876	0	0
326	266	0	4	0	34081682	0	0
327	266	1	4	0	34078876	0	0
